p edge 40 179 20
v 1 5
v 4 2 7 14 29
v 3 12 21 23
v 4 8 16 31 35
v 1 25
v 3 4 11 36
v 2 18 30
v 1 37
v 1 27
v 1 32
v 2 15 34
v 2 17 40
v 3 20 22 38
v 3 3 6 39
v 1 1
v 2 24 28
v 1 26
v 1 19
v 1 33
v 3 9 10 13
e 1 7
e 1 10
e 1 16
e 1 22
e 1 34
e 1 35
e 1 36
e 1 37
e 2 3
e 2 6
e 2 9
e 2 14
e 2 15
e 2 20
e 2 23
e 2 24
e 2 28
e 2 29
e 2 38
e 2 39
e 2 40
e 3 4
e 3 7
e 3 8
e 3 23
e 3 25
e 3 28
e 3 36
e 4 12
e 4 13
e 4 14
e 4 16
e 4 17
e 4 22
e 4 29
e 4 32
e 4 34
e 5 10
e 5 11
e 5 13
e 5 15
e 5 23
e 5 25
e 5 26
e 5 27
e 5 28
e 5 38
e 6 12
e 6 14
e 6 15
e 6 20
e 6 27
e 6 28
e 6 29
e 6 39
e 7 8
e 7 9
e 7 11
e 7 13
e 7 15
e 7 20
e 7 33
e 7 37
e 8 11
e 8 13
e 8 16
e 8 21
e 8 25
e 8 26
e 8 29
e 8 32
e 8 35
e 8 36
e 8 39
e 9 16
e 9 18
e 9 22
e 9 23
e 9 25
e 9 26
e 9 31
e 9 32
e 9 34
e 9 38
e 10 13
e 10 16
e 10 17
e 10 28
e 10 40
e 11 14
e 11 23
e 11 25
e 11 29
e 11 30
e 11 33
e 11 34
e 11 40
e 12 16
e 12 21
e 12 23
e 12 24
e 12 25
e 12 31
e 12 32
e 13 15
e 13 17
e 13 19
e 13 20
e 13 22
e 13 28
e 13 29
e 13 31
e 13 38
e 14 18
e 14 19
e 14 21
e 14 26
e 14 27
e 14 28
e 14 29
e 14 34
e 14 39
e 15 17
e 15 29
e 15 31
e 15 34
e 16 18
e 16 24
e 16 36
e 17 19
e 17 22
e 17 23
e 17 25
e 17 27
e 17 28
e 17 32
e 17 39
e 18 25
e 18 31
e 18 35
e 19 26
e 19 29
e 19 36
e 19 38
e 20 24
e 20 29
e 20 32
e 20 34
e 20 37
e 21 27
e 21 29
e 22 29
e 22 32
e 23 27
e 23 28
e 23 30
e 23 35
e 23 38
e 23 39
e 24 27
e 24 28
e 24 31
e 24 35
e 24 36
e 25 29
e 25 30
e 25 40
e 27 29
e 28 36
e 28 38
e 29 39
e 30 31
e 31 36
e 32 37
e 33 36
e 34 40
e 35 38
e 36 37
e 37 38
